c File: instances/28_0.15_3.col
c
c Description: Random graph of size 28 vertices and P(0.15000000000000002) of edges between any two vertices.
p col 28 378
e 1 8
e 1 21
e 1 28
e 2 4
e 3 4
e 3 12
e 3 24
e 4 10
e 4 17
e 4 21
e 4 24
e 4 25
e 4 26
e 5 10
e 5 23
e 5 26
e 6 14
e 6 20
e 6 23
e 6 24
e 6 28
e 7 9
e 7 21
e 7 22
e 7 28
e 8 18
e 8 20
e 8 25
e 8 28
e 9 14
e 9 15
e 9 16
e 9 18
e 9 27
e 10 27
e 11 14
e 12 18
e 13 22
e 13 26
e 13 27
e 14 15
e 14 18
e 14 24
e 15 18
e 15 20
e 15 26
e 16 27
e 16 28
e 17 25
e 20 21
e 20 22
e 20 27
e 22 26
e 22 27
e 25 27